%BLOCK LATTICE_CART
      17.580000049119505      -0.000000000000955      -0.000000000001834
       0.000000000000000       8.790000024559740      -0.000000000001557
       0.000000000000000       0.000000000000000      12.843634931705303
%ENDBLOCK LATTICE_CART

%BLOCK POSITIONS_FRAC
  H   0.2250584314299970   0.6723661333962822   0.7337931235999391
  H   0.3329100157491771   0.5018300536152831   0.1864031424286791
  H   0.0816271961440352   0.9922356654829052   0.6849247790756097
  H   0.4700606067236020   0.1717554824679490   0.2437404733080242
  H   0.2191359604072830   0.5485391786525952   0.6344090312207897
  H   0.2628489470601321   0.6303150769850862   0.1762689248959830
  H   0.0149520960550595   1.1277960801481399   0.6780324693766149
  H   0.4675327137867061   0.0577796825783653   0.1387997520892870
  H   0.1569741914290581   0.5359062454744401   0.7333242900472408
  H   0.3101535553439851   0.6097749060036322   0.2913164000744100
  H   0.0658192620716890   1.1066300520435601   0.7895848810733537
  H   0.4030592366195441   0.0339588366098461   0.2339417902530759
  H   0.3254053882945030   0.4791900206257231   0.7468753806494510
  H   0.2110416280981720   0.3745317601185740   0.1913240248329179
  H  -0.0434497500411964   0.8794253443035143   0.7019387783739592
  H   0.5716732134343301  -0.0166500727768180   0.2538452630577510
  H   0.2530892954921271   0.3352807036331890   0.7461695494311751
  H   0.1846919384387830   0.4904938510410590   0.3007313822148410
  H  -0.0609163957940506   1.0009426133652100   0.8120211205262260
  H   0.5019315212765301  -0.1643671561858970   0.2404783437887760
  H   0.2595543009003861   0.4661965431360041   0.8532489968187227
  H   0.2601424355627210   0.3548914829091860   0.3130407303872749
  H   0.0110209053883394   0.8572480715867591   0.8192390329007011
  H   0.5029411323860400  -0.0468199991585804   0.3548898593892460
  H   0.7231920292034431   0.6714503635047120   0.7314590417666618
  H   0.8396322388642530   0.5038733253901672   0.1954249918415240
  H   0.5825448997115941   0.9998568171592592   0.6875352362935578
  H   0.9708549973626020   0.1694031351594360   0.2397868566302900
  H   0.7177227942134881   0.5463712447311491   0.6325011054806500
  H   0.7678888672716178   0.6260540117467441   0.1733444411328660
  H   0.5120009364053670   1.1268927655468701   0.6748600487786212
  H   0.9666102443171589   0.0511755399156521   0.1369544225051619
  H   0.6555232745230271   0.5341900418352041   0.7313746620156401
  H   0.8083481165069268   0.6138159333035782   0.2937425985223501
  H   0.5608998981754081   1.1151065546687000   0.7891528305254119
  H   0.9030856703439278   0.0329589653937585   0.2336776613668610
  H   0.8241794151845230   0.4789168414258521   0.7444715109109410
  H   0.7176373696842240   0.3709017431712550   0.1878964498656159
  H   0.4582915075585980   0.8765261496796561   0.7007395433612080
  H   1.0714827445514401  -0.0230712041304839   0.2504714094010481
  H   0.7519998084853179   0.3345680547269360   0.7447069881355493
  H   0.6856489356647870   0.4868366723775931   0.2943219107390829
  H   0.4380442639947310   0.9968620188789260   0.8104122977752812
  H   0.9998334763311501  -0.1678164975664940   0.2426665433606590
  H   0.7587918733166630   0.4661134431464060   0.8514815402734330
  H   0.7617353882786511   0.3543785375131750   0.3132966239359190
  H   0.5127005066755890   0.8590319243362531   0.8184844903273778
  H   1.0040223646764803  -0.0449633320335621   0.3542668653023511
  C   0.2667273999209611   0.4522624915361570   0.7691819307217269
  C   0.2319296845007070   0.4348204200324181   0.2603350206959749
  C  -0.0175572462252158   0.9387889892869791   0.7680686029245740
  C   0.5128660576698210  -0.0499027332631479   0.2708424779044498
  C   0.7656496019479231   0.4517445661838000   0.7674016092265992
  C   0.7350068854033580   0.4326022372394561   0.2580538665469192
  C   0.4827610638638831   0.9380793706908751   0.7669194893584377
  C   1.0126099127580599  -0.0525392402278866   0.2700700894374939
  N   0.2141426407106180   0.5581822476261231   0.7149404362964780
  N   0.2879057064481581   0.5519540860771800   0.2268359706613718
  N   0.0397829168464712   1.0486462187955401   0.7279694845764539
  N   0.4603591335474620   0.0593631222480702   0.2193612872994528
  N   0.7126384645214041   0.5570083277895301   0.7129666185324901
  N   0.7909565213834988   0.5517284133701561   0.2283126956503321
  N   0.5379460231159461   1.0525489311095899   0.7273449603873039
  N   0.9604744913378449   0.0563601638595529   0.2175409854893140
  I   0.0999606661683244   0.7885039782177972   0.5257098166371461
  I   0.1604952545268250   0.6718851050010420   0.0125362669109199
  I   0.4118955318397812   0.1638488283856370   0.5073196179566550
  I   0.3518720620325261   0.2955197215220330   0.0208405099405208
  I   0.1522570574535631   0.2810478304830100   0.5207339063665191
  I   0.0923046126312350   0.1611520893672441   0.9947888362708270
  I   0.3400423081652300   0.6593407928759981   0.4941856023238129
  I   0.4039620242740111   0.7878769379518182   0.0228489584136768
  I   0.2522491522427950   0.9610515074811041   0.7518254972279888
  I   0.2522636893002860   0.9875451875408500   0.2507444475903229
  I   0.0144442691474490   0.4836633239666860   0.7572452739942628
  I   0.5001527141433482   0.4610654620362331   0.2593327583727820
  I   0.5963092531861429   0.7888485277229231   0.5257217238307821
  I   0.6636702379700730   0.6704649741779661   0.0122631444689204
  I   0.9082669490546300   0.1641774816373850   0.5073856706377951
  I   0.8524103085485628   0.2854404956442561   0.0161309675771284
  I   0.6520208077765068   0.2840776610550760   0.5167897038458849
  I   0.5882479879533560   0.1592761268054221   0.9945538911279999
  I   0.8429072992856330   0.6638463952707141   0.4943767990967571
  I   0.9028993680591300   0.7811139293272591   0.0217241422878748
  I   0.7483644925001050   0.9609934364694014   0.7516570746842701
  I   0.7558799694125962   0.9873230253624562   0.2506433196317770
  I   0.5113833356790312   0.4840314646130671   0.7574845312367688
  I   0.9964511399760581   0.4607333993705021   0.2592994226987320
 Pb   0.2539982820730141   0.9833050350930621   0.5011113634346021
 Pb   0.2516642790535330   0.9870259993038912   0.0014463226452880
 Pb   0.4995168952800261   0.4821883109124131   0.5065112537504108
 Pb   0.0049263889149541   0.4847003125816170   0.0061822564021317
 Pb   0.7512455258373030   0.9819315613289631   0.5009603714066759
 Pb   0.7496587686063330   0.9858368693395653   0.0011074929105683
 Pb   1.0002378697100500   0.4799584749089351   0.5071290638762531
 Pb   0.5058949613729560   0.4884863409288381   0.0068996315622337
%ENDBLOCK POSITIONS_FRAC

%BLOCK KPOINTS_LIST
   0.2500000000000000   0.3750000000000000   0.3333333333333333       0.083333333333333
   0.2500000000000000   0.3750000000000000   0.0000000000000000       0.083333333333333
   0.2500000000000000   0.3750000000000000  -0.3333333333333333       0.083333333333333
   0.2500000000000000   0.1250000000000000   0.3333333333333333       0.083333333333333
   0.2500000000000000   0.1250000000000000   0.0000000000000000       0.083333333333333
   0.2500000000000000   0.1250000000000000  -0.3333333333333333       0.083333333333333
   0.2500000000000000  -0.1250000000000000   0.3333333333333333       0.083333333333333
   0.2500000000000000  -0.1250000000000000   0.0000000000000000       0.083333333333333
   0.2500000000000000  -0.1250000000000000  -0.3333333333333333       0.083333333333333
   0.2500000000000000  -0.3750000000000000   0.3333333333333333       0.083333333333333
   0.2500000000000000  -0.3750000000000000   0.0000000000000000       0.083333333333333
   0.2500000000000000  -0.3750000000000000  -0.3333333333333333       0.083333333333333
%ENDBLOCK KPOINTS_LIST

%BLOCK CELL_CONSTRAINTS
       1       2       3
       4       5       6
%ENDBLOCK CELL_CONSTRAINTS

FIX_COM : false
%BLOCK IONIC_CONSTRAINTS
%ENDBLOCK IONIC_CONSTRAINTS

%BLOCK EXTERNAL_EFIELD
    0.0000000000     0.0000000000     0.0000000000 
%ENDBLOCK EXTERNAL_EFIELD

%BLOCK SPECIES_MASS
       H      1.0080000162
       C     12.0109996796
       N     14.0069999695
       I    126.9039993286
      Pb    207.1999969482
%ENDBLOCK SPECIES_MASS

%BLOCK SPECIES_POT
       H  H_00PBE.usp
       C  C_00PBE.usp
       N  N_00PBE.usp
       I  I_00PBE.usp
      Pb  Pb_00PBE.usp
%ENDBLOCK SPECIES_POT

%BLOCK SPECIES_LCAO_STATES
       H         1
       C         2
       N         2
       I         3
      Pb         4
%ENDBLOCK SPECIES_LCAO_STATES

